NAME : n80w160.002.654.tour
COMMENT : Length = 654
COMMENT : Found by LKH [Keld Helsgaun] Tue May  2 05:50:08 2017
TYPE : TOUR
DIMENSION : 81
TOUR_SECTION
1
27
35
52
10
2
61
47
21
38
78
60
45
25
72
62
8
22
80
40
64
24
11
20
3
58
4
6
71
50
19
17
16
13
31
18
77
68
26
37
54
65
79
39
63
51
49
34
73
46
9
5
43
7
53
15
36
75
14
44
55
66
48
32
67
57
56
33
41
76
42
30
59
29
23
74
69
12
70
28
81
-1
EOF
